c Modular CNF with 8 modules
c Generated CNF instance
p cnf 80 1280
2 1 5 0
2 1 -5 0
2 -1 5 0
-2 1 5 0
4 10 3 0
4 10 -3 0
4 -10 3 0
-4 10 3 0
2 9 10 0
2 9 -10 0
2 -9 10 0
-2 9 10 0
10 7 1 0
10 7 -1 0
10 -7 1 0
-10 7 1 0
1 2 4 0
1 2 -4 0
1 -2 4 0
-1 2 4 0
4 9 1 0
4 9 -1 0
4 -9 1 0
-4 9 1 0
9 4 7 0
9 4 -7 0
9 -4 7 0
-9 4 7 0
4 8 5 0
4 8 -5 0
4 -8 5 0
-4 8 5 0
1 3 7 0
1 3 -7 0
1 -3 7 0
-1 3 7 0
6 5 3 0
6 5 -3 0
6 -5 3 0
-6 5 3 0
4 6 2 0
4 6 -2 0
4 -6 2 0
-4 6 2 0
2 7 10 0
2 7 -10 0
2 -7 10 0
-2 7 10 0
6 10 5 0
6 10 -5 0
6 -10 5 0
-6 10 5 0
1 8 2 0
1 8 -2 0
1 -8 2 0
-1 8 2 0
7 2 5 0
7 2 -5 0
7 -2 5 0
-7 2 5 0
10 6 4 0
10 6 -4 0
10 -6 4 0
-10 6 4 0
2 1 4 0
2 1 -4 0
2 -1 4 0
-2 1 4 0
5 2 4 0
5 2 -4 0
5 -2 4 0
-5 2 4 0
2 7 5 0
2 7 -5 0
2 -7 5 0
-2 7 5 0
8 6 3 0
8 6 -3 0
8 -6 3 0
-8 6 3 0
6 10 4 0
6 10 -4 0
6 -10 4 0
-6 10 4 0
5 2 3 0
5 2 -3 0
5 -2 3 0
-5 2 3 0
9 4 3 0
9 4 -3 0
9 -4 3 0
-9 4 3 0
8 7 5 0
8 7 -5 0
8 -7 5 0
-8 7 5 0
9 4 6 0
9 4 -6 0
9 -4 6 0
-9 4 6 0
1 4 10 0
1 4 -10 0
1 -4 10 0
-1 4 10 0
6 7 5 0
6 7 -5 0
6 -7 5 0
-6 7 5 0
2 4 6 0
2 4 -6 0
2 -4 6 0
-2 4 6 0
4 8 7 0
4 8 -7 0
4 -8 7 0
-4 8 7 0
8 3 5 0
8 3 -5 0
8 -3 5 0
-8 3 5 0
3 4 5 0
3 4 -5 0
3 -4 5 0
-3 4 5 0
10 7 9 0
10 7 -9 0
10 -7 9 0
-10 7 9 0
6 4 3 0
6 4 -3 0
6 -4 3 0
-6 4 3 0
9 8 2 0
9 8 -2 0
9 -8 2 0
-9 8 2 0
1 2 3 0
1 2 -3 0
1 -2 3 0
-1 2 3 0
3 7 2 0
3 7 -2 0
3 -7 2 0
-3 7 2 0
7 10 8 0
7 10 -8 0
7 -10 8 0
-7 10 8 0
9 5 1 0
9 5 -1 0
9 -5 1 0
-9 5 1 0
2 9 5 0
2 9 -5 0
2 -9 5 0
-2 9 5 0
6 2 5 0
6 2 -5 0
6 -2 5 0
-6 2 5 0
17 13 18 0
17 13 -18 0
17 -13 18 0
-17 13 18 0
11 15 13 0
11 15 -13 0
11 -15 13 0
-11 15 13 0
19 12 15 0
19 12 -15 0
19 -12 15 0
-19 12 15 0
19 14 13 0
19 14 -13 0
19 -14 13 0
-19 14 13 0
16 13 11 0
16 13 -11 0
16 -13 11 0
-16 13 11 0
20 16 18 0
20 16 -18 0
20 -16 18 0
-20 16 18 0
11 12 16 0
11 12 -16 0
11 -12 16 0
-11 12 16 0
15 14 11 0
15 14 -11 0
15 -14 11 0
-15 14 11 0
14 12 19 0
14 12 -19 0
14 -12 19 0
-14 12 19 0
18 12 13 0
18 12 -13 0
18 -12 13 0
-18 12 13 0
13 18 20 0
13 18 -20 0
13 -18 20 0
-13 18 20 0
15 19 17 0
15 19 -17 0
15 -19 17 0
-15 19 17 0
14 19 20 0
14 19 -20 0
14 -19 20 0
-14 19 20 0
15 17 16 0
15 17 -16 0
15 -17 16 0
-15 17 16 0
18 19 20 0
18 19 -20 0
18 -19 20 0
-18 19 20 0
12 14 19 0
12 14 -19 0
12 -14 19 0
-12 14 19 0
12 16 11 0
12 16 -11 0
12 -16 11 0
-12 16 11 0
20 19 14 0
20 19 -14 0
20 -19 14 0
-20 19 14 0
20 14 11 0
20 14 -11 0
20 -14 11 0
-20 14 11 0
12 11 14 0
12 11 -14 0
12 -11 14 0
-12 11 14 0
12 11 16 0
12 11 -16 0
12 -11 16 0
-12 11 16 0
12 19 14 0
12 19 -14 0
12 -19 14 0
-12 19 14 0
15 18 14 0
15 18 -14 0
15 -18 14 0
-15 18 14 0
19 13 18 0
19 13 -18 0
19 -13 18 0
-19 13 18 0
14 18 17 0
14 18 -17 0
14 -18 17 0
-14 18 17 0
14 12 19 0
14 12 -19 0
14 -12 19 0
-14 12 19 0
17 16 20 0
17 16 -20 0
17 -16 20 0
-17 16 20 0
17 18 11 0
17 18 -11 0
17 -18 11 0
-17 18 11 0
12 11 17 0
12 11 -17 0
12 -11 17 0
-12 11 17 0
16 12 14 0
16 12 -14 0
16 -12 14 0
-16 12 14 0
14 20 18 0
14 20 -18 0
14 -20 18 0
-14 20 18 0
13 17 20 0
13 17 -20 0
13 -17 20 0
-13 17 20 0
15 18 14 0
15 18 -14 0
15 -18 14 0
-15 18 14 0
12 18 20 0
12 18 -20 0
12 -18 20 0
-12 18 20 0
11 19 20 0
11 19 -20 0
11 -19 20 0
-11 19 20 0
12 14 13 0
12 14 -13 0
12 -14 13 0
-12 14 13 0
17 18 19 0
17 18 -19 0
17 -18 19 0
-17 18 19 0
14 17 11 0
14 17 -11 0
14 -17 11 0
-14 17 11 0
13 17 11 0
13 17 -11 0
13 -17 11 0
-13 17 11 0
17 15 18 0
17 15 -18 0
17 -15 18 0
-17 15 18 0
25 27 28 0
25 27 -28 0
25 -27 28 0
-25 27 28 0
23 24 25 0
23 24 -25 0
23 -24 25 0
-23 24 25 0
24 21 29 0
24 21 -29 0
24 -21 29 0
-24 21 29 0
26 21 29 0
26 21 -29 0
26 -21 29 0
-26 21 29 0
30 28 23 0
30 28 -23 0
30 -28 23 0
-30 28 23 0
21 29 22 0
21 29 -22 0
21 -29 22 0
-21 29 22 0
23 22 29 0
23 22 -29 0
23 -22 29 0
-23 22 29 0
24 27 22 0
24 27 -22 0
24 -27 22 0
-24 27 22 0
30 24 21 0
30 24 -21 0
30 -24 21 0
-30 24 21 0
30 22 27 0
30 22 -27 0
30 -22 27 0
-30 22 27 0
30 29 26 0
30 29 -26 0
30 -29 26 0
-30 29 26 0
25 24 26 0
25 24 -26 0
25 -24 26 0
-25 24 26 0
24 25 27 0
24 25 -27 0
24 -25 27 0
-24 25 27 0
23 25 28 0
23 25 -28 0
23 -25 28 0
-23 25 28 0
26 22 21 0
26 22 -21 0
26 -22 21 0
-26 22 21 0
28 22 29 0
28 22 -29 0
28 -22 29 0
-28 22 29 0
29 24 25 0
29 24 -25 0
29 -24 25 0
-29 24 25 0
23 26 22 0
23 26 -22 0
23 -26 22 0
-23 26 22 0
24 26 25 0
24 26 -25 0
24 -26 25 0
-24 26 25 0
23 28 25 0
23 28 -25 0
23 -28 25 0
-23 28 25 0
30 29 21 0
30 29 -21 0
30 -29 21 0
-30 29 21 0
29 25 22 0
29 25 -22 0
29 -25 22 0
-29 25 22 0
23 25 22 0
23 25 -22 0
23 -25 22 0
-23 25 22 0
22 29 23 0
22 29 -23 0
22 -29 23 0
-22 29 23 0
25 30 24 0
25 30 -24 0
25 -30 24 0
-25 30 24 0
26 24 25 0
26 24 -25 0
26 -24 25 0
-26 24 25 0
29 28 25 0
29 28 -25 0
29 -28 25 0
-29 28 25 0
21 22 27 0
21 22 -27 0
21 -22 27 0
-21 22 27 0
25 21 29 0
25 21 -29 0
25 -21 29 0
-25 21 29 0
26 23 25 0
26 23 -25 0
26 -23 25 0
-26 23 25 0
23 28 27 0
23 28 -27 0
23 -28 27 0
-23 28 27 0
29 21 22 0
29 21 -22 0
29 -21 22 0
-29 21 22 0
22 23 21 0
22 23 -21 0
22 -23 21 0
-22 23 21 0
26 29 23 0
26 29 -23 0
26 -29 23 0
-26 29 23 0
27 23 21 0
27 23 -21 0
27 -23 21 0
-27 23 21 0
25 26 21 0
25 26 -21 0
25 -26 21 0
-25 26 21 0
26 24 29 0
26 24 -29 0
26 -24 29 0
-26 24 29 0
22 26 27 0
22 26 -27 0
22 -26 27 0
-22 26 27 0
30 23 24 0
30 23 -24 0
30 -23 24 0
-30 23 24 0
23 30 27 0
23 30 -27 0
23 -30 27 0
-23 30 27 0
31 33 36 0
31 33 -36 0
31 -33 36 0
-31 33 36 0
37 34 35 0
37 34 -35 0
37 -34 35 0
-37 34 35 0
33 32 37 0
33 32 -37 0
33 -32 37 0
-33 32 37 0
31 38 34 0
31 38 -34 0
31 -38 34 0
-31 38 34 0
34 38 36 0
34 38 -36 0
34 -38 36 0
-34 38 36 0
35 34 39 0
35 34 -39 0
35 -34 39 0
-35 34 39 0
31 34 37 0
31 34 -37 0
31 -34 37 0
-31 34 37 0
36 35 32 0
36 35 -32 0
36 -35 32 0
-36 35 32 0
35 36 37 0
35 36 -37 0
35 -36 37 0
-35 36 37 0
39 36 31 0
39 36 -31 0
39 -36 31 0
-39 36 31 0
32 35 33 0
32 35 -33 0
32 -35 33 0
-32 35 33 0
40 35 31 0
40 35 -31 0
40 -35 31 0
-40 35 31 0
32 37 36 0
32 37 -36 0
32 -37 36 0
-32 37 36 0
36 37 32 0
36 37 -32 0
36 -37 32 0
-36 37 32 0
37 34 35 0
37 34 -35 0
37 -34 35 0
-37 34 35 0
31 37 40 0
31 37 -40 0
31 -37 40 0
-31 37 40 0
39 40 34 0
39 40 -34 0
39 -40 34 0
-39 40 34 0
36 37 32 0
36 37 -32 0
36 -37 32 0
-36 37 32 0
36 40 32 0
36 40 -32 0
36 -40 32 0
-36 40 32 0
35 39 40 0
35 39 -40 0
35 -39 40 0
-35 39 40 0
37 36 40 0
37 36 -40 0
37 -36 40 0
-37 36 40 0
35 39 33 0
35 39 -33 0
35 -39 33 0
-35 39 33 0
34 37 39 0
34 37 -39 0
34 -37 39 0
-34 37 39 0
33 35 37 0
33 35 -37 0
33 -35 37 0
-33 35 37 0
39 31 35 0
39 31 -35 0
39 -31 35 0
-39 31 35 0
35 34 37 0
35 34 -37 0
35 -34 37 0
-35 34 37 0
40 36 38 0
40 36 -38 0
40 -36 38 0
-40 36 38 0
38 40 34 0
38 40 -34 0
38 -40 34 0
-38 40 34 0
39 38 33 0
39 38 -33 0
39 -38 33 0
-39 38 33 0
32 35 36 0
32 35 -36 0
32 -35 36 0
-32 35 36 0
32 34 35 0
32 34 -35 0
32 -34 35 0
-32 34 35 0
34 40 33 0
34 40 -33 0
34 -40 33 0
-34 40 33 0
31 40 34 0
31 40 -34 0
31 -40 34 0
-31 40 34 0
38 32 40 0
38 32 -40 0
38 -32 40 0
-38 32 40 0
37 34 40 0
37 34 -40 0
37 -34 40 0
-37 34 40 0
38 37 34 0
38 37 -34 0
38 -37 34 0
-38 37 34 0
33 31 32 0
33 31 -32 0
33 -31 32 0
-33 31 32 0
37 34 33 0
37 34 -33 0
37 -34 33 0
-37 34 33 0
39 38 31 0
39 38 -31 0
39 -38 31 0
-39 38 31 0
39 34 32 0
39 34 -32 0
39 -34 32 0
-39 34 32 0
48 43 50 0
48 43 -50 0
48 -43 50 0
-48 43 50 0
49 50 46 0
49 50 -46 0
49 -50 46 0
-49 50 46 0
48 49 47 0
48 49 -47 0
48 -49 47 0
-48 49 47 0
49 48 43 0
49 48 -43 0
49 -48 43 0
-49 48 43 0
48 50 45 0
48 50 -45 0
48 -50 45 0
-48 50 45 0
44 45 48 0
44 45 -48 0
44 -45 48 0
-44 45 48 0
44 45 48 0
44 45 -48 0
44 -45 48 0
-44 45 48 0
42 45 44 0
42 45 -44 0
42 -45 44 0
-42 45 44 0
45 46 49 0
45 46 -49 0
45 -46 49 0
-45 46 49 0
49 42 43 0
49 42 -43 0
49 -42 43 0
-49 42 43 0
43 44 47 0
43 44 -47 0
43 -44 47 0
-43 44 47 0
43 44 42 0
43 44 -42 0
43 -44 42 0
-43 44 42 0
47 50 46 0
47 50 -46 0
47 -50 46 0
-47 50 46 0
49 48 47 0
49 48 -47 0
49 -48 47 0
-49 48 47 0
41 44 47 0
41 44 -47 0
41 -44 47 0
-41 44 47 0
47 41 50 0
47 41 -50 0
47 -41 50 0
-47 41 50 0
48 41 46 0
48 41 -46 0
48 -41 46 0
-48 41 46 0
45 47 49 0
45 47 -49 0
45 -47 49 0
-45 47 49 0
49 50 44 0
49 50 -44 0
49 -50 44 0
-49 50 44 0
48 44 45 0
48 44 -45 0
48 -44 45 0
-48 44 45 0
47 48 41 0
47 48 -41 0
47 -48 41 0
-47 48 41 0
47 46 50 0
47 46 -50 0
47 -46 50 0
-47 46 50 0
43 48 50 0
43 48 -50 0
43 -48 50 0
-43 48 50 0
50 49 41 0
50 49 -41 0
50 -49 41 0
-50 49 41 0
47 41 42 0
47 41 -42 0
47 -41 42 0
-47 41 42 0
47 43 48 0
47 43 -48 0
47 -43 48 0
-47 43 48 0
43 41 45 0
43 41 -45 0
43 -41 45 0
-43 41 45 0
47 46 44 0
47 46 -44 0
47 -46 44 0
-47 46 44 0
48 46 49 0
48 46 -49 0
48 -46 49 0
-48 46 49 0
47 45 50 0
47 45 -50 0
47 -45 50 0
-47 45 50 0
45 42 48 0
45 42 -48 0
45 -42 48 0
-45 42 48 0
41 49 50 0
41 49 -50 0
41 -49 50 0
-41 49 50 0
46 44 42 0
46 44 -42 0
46 -44 42 0
-46 44 42 0
41 50 44 0
41 50 -44 0
41 -50 44 0
-41 50 44 0
44 41 43 0
44 41 -43 0
44 -41 43 0
-44 41 43 0
44 43 48 0
44 43 -48 0
44 -43 48 0
-44 43 48 0
42 44 48 0
42 44 -48 0
42 -44 48 0
-42 44 48 0
45 46 43 0
45 46 -43 0
45 -46 43 0
-45 46 43 0
50 42 43 0
50 42 -43 0
50 -42 43 0
-50 42 43 0
45 42 41 0
45 42 -41 0
45 -42 41 0
-45 42 41 0
55 57 59 0
55 57 -59 0
55 -57 59 0
-55 57 59 0
54 52 60 0
54 52 -60 0
54 -52 60 0
-54 52 60 0
52 55 60 0
52 55 -60 0
52 -55 60 0
-52 55 60 0
60 51 56 0
60 51 -56 0
60 -51 56 0
-60 51 56 0
59 57 56 0
59 57 -56 0
59 -57 56 0
-59 57 56 0
52 59 56 0
52 59 -56 0
52 -59 56 0
-52 59 56 0
51 57 58 0
51 57 -58 0
51 -57 58 0
-51 57 58 0
52 57 56 0
52 57 -56 0
52 -57 56 0
-52 57 56 0
58 53 57 0
58 53 -57 0
58 -53 57 0
-58 53 57 0
53 59 55 0
53 59 -55 0
53 -59 55 0
-53 59 55 0
60 59 58 0
60 59 -58 0
60 -59 58 0
-60 59 58 0
58 57 55 0
58 57 -55 0
58 -57 55 0
-58 57 55 0
56 54 52 0
56 54 -52 0
56 -54 52 0
-56 54 52 0
55 58 54 0
55 58 -54 0
55 -58 54 0
-55 58 54 0
58 57 56 0
58 57 -56 0
58 -57 56 0
-58 57 56 0
51 58 56 0
51 58 -56 0
51 -58 56 0
-51 58 56 0
53 58 54 0
53 58 -54 0
53 -58 54 0
-53 58 54 0
56 55 60 0
56 55 -60 0
56 -55 60 0
-56 55 60 0
55 60 51 0
55 60 -51 0
55 -60 51 0
-55 60 51 0
59 54 52 0
59 54 -52 0
59 -54 52 0
-59 54 52 0
54 57 58 0
54 57 -58 0
54 -57 58 0
-54 57 58 0
59 54 58 0
59 54 -58 0
59 -54 58 0
-59 54 58 0
58 60 51 0
58 60 -51 0
58 -60 51 0
-58 60 51 0
52 55 54 0
52 55 -54 0
52 -55 54 0
-52 55 54 0
57 54 55 0
57 54 -55 0
57 -54 55 0
-57 54 55 0
60 56 58 0
60 56 -58 0
60 -56 58 0
-60 56 58 0
59 60 56 0
59 60 -56 0
59 -60 56 0
-59 60 56 0
57 59 56 0
57 59 -56 0
57 -59 56 0
-57 59 56 0
56 58 55 0
56 58 -55 0
56 -58 55 0
-56 58 55 0
55 60 54 0
55 60 -54 0
55 -60 54 0
-55 60 54 0
52 54 56 0
52 54 -56 0
52 -54 56 0
-52 54 56 0
52 59 53 0
52 59 -53 0
52 -59 53 0
-52 59 53 0
54 60 58 0
54 60 -58 0
54 -60 58 0
-54 60 58 0
55 59 60 0
55 59 -60 0
55 -59 60 0
-55 59 60 0
52 54 55 0
52 54 -55 0
52 -54 55 0
-52 54 55 0
54 56 53 0
54 56 -53 0
54 -56 53 0
-54 56 53 0
55 51 53 0
55 51 -53 0
55 -51 53 0
-55 51 53 0
55 51 59 0
55 51 -59 0
55 -51 59 0
-55 51 59 0
59 55 53 0
59 55 -53 0
59 -55 53 0
-59 55 53 0
58 52 51 0
58 52 -51 0
58 -52 51 0
-58 52 51 0
70 65 68 0
70 65 -68 0
70 -65 68 0
-70 65 68 0
68 70 66 0
68 70 -66 0
68 -70 66 0
-68 70 66 0
63 61 65 0
63 61 -65 0
63 -61 65 0
-63 61 65 0
68 62 69 0
68 62 -69 0
68 -62 69 0
-68 62 69 0
67 68 62 0
67 68 -62 0
67 -68 62 0
-67 68 62 0
70 61 63 0
70 61 -63 0
70 -61 63 0
-70 61 63 0
63 65 62 0
63 65 -62 0
63 -65 62 0
-63 65 62 0
64 62 67 0
64 62 -67 0
64 -62 67 0
-64 62 67 0
70 64 67 0
70 64 -67 0
70 -64 67 0
-70 64 67 0
68 70 65 0
68 70 -65 0
68 -70 65 0
-68 70 65 0
70 67 65 0
70 67 -65 0
70 -67 65 0
-70 67 65 0
70 61 62 0
70 61 -62 0
70 -61 62 0
-70 61 62 0
64 70 65 0
64 70 -65 0
64 -70 65 0
-64 70 65 0
62 63 64 0
62 63 -64 0
62 -63 64 0
-62 63 64 0
63 69 62 0
63 69 -62 0
63 -69 62 0
-63 69 62 0
63 61 67 0
63 61 -67 0
63 -61 67 0
-63 61 67 0
68 70 65 0
68 70 -65 0
68 -70 65 0
-68 70 65 0
61 64 65 0
61 64 -65 0
61 -64 65 0
-61 64 65 0
65 68 62 0
65 68 -62 0
65 -68 62 0
-65 68 62 0
64 65 70 0
64 65 -70 0
64 -65 70 0
-64 65 70 0
67 62 64 0
67 62 -64 0
67 -62 64 0
-67 62 64 0
63 65 70 0
63 65 -70 0
63 -65 70 0
-63 65 70 0
62 61 63 0
62 61 -63 0
62 -61 63 0
-62 61 63 0
65 70 68 0
65 70 -68 0
65 -70 68 0
-65 70 68 0
62 68 65 0
62 68 -65 0
62 -68 65 0
-62 68 65 0
67 65 68 0
67 65 -68 0
67 -65 68 0
-67 65 68 0
68 62 61 0
68 62 -61 0
68 -62 61 0
-68 62 61 0
67 66 65 0
67 66 -65 0
67 -66 65 0
-67 66 65 0
61 62 64 0
61 62 -64 0
61 -62 64 0
-61 62 64 0
70 61 65 0
70 61 -65 0
70 -61 65 0
-70 61 65 0
70 61 63 0
70 61 -63 0
70 -61 63 0
-70 61 63 0
68 69 70 0
68 69 -70 0
68 -69 70 0
-68 69 70 0
65 63 67 0
65 63 -67 0
65 -63 67 0
-65 63 67 0
68 62 70 0
68 62 -70 0
68 -62 70 0
-68 62 70 0
66 67 70 0
66 67 -70 0
66 -67 70 0
-66 67 70 0
66 62 63 0
66 62 -63 0
66 -62 63 0
-66 62 63 0
66 67 68 0
66 67 -68 0
66 -67 68 0
-66 67 68 0
65 67 61 0
65 67 -61 0
65 -67 61 0
-65 67 61 0
68 62 66 0
68 62 -66 0
68 -62 66 0
-68 62 66 0
65 66 62 0
65 66 -62 0
65 -66 62 0
-65 66 62 0
77 79 71 0
77 79 -71 0
77 -79 71 0
-77 79 71 0
79 78 77 0
79 78 -77 0
79 -78 77 0
-79 78 77 0
71 74 76 0
71 74 -76 0
71 -74 76 0
-71 74 76 0
80 78 79 0
80 78 -79 0
80 -78 79 0
-80 78 79 0
71 74 75 0
71 74 -75 0
71 -74 75 0
-71 74 75 0
79 73 75 0
79 73 -75 0
79 -73 75 0
-79 73 75 0
78 80 72 0
78 80 -72 0
78 -80 72 0
-78 80 72 0
71 74 73 0
71 74 -73 0
71 -74 73 0
-71 74 73 0
75 79 71 0
75 79 -71 0
75 -79 71 0
-75 79 71 0
79 77 72 0
79 77 -72 0
79 -77 72 0
-79 77 72 0
74 72 78 0
74 72 -78 0
74 -72 78 0
-74 72 78 0
72 73 78 0
72 73 -78 0
72 -73 78 0
-72 73 78 0
75 79 80 0
75 79 -80 0
75 -79 80 0
-75 79 80 0
77 78 79 0
77 78 -79 0
77 -78 79 0
-77 78 79 0
74 78 73 0
74 78 -73 0
74 -78 73 0
-74 78 73 0
77 74 73 0
77 74 -73 0
77 -74 73 0
-77 74 73 0
72 75 77 0
72 75 -77 0
72 -75 77 0
-72 75 77 0
76 79 75 0
76 79 -75 0
76 -79 75 0
-76 79 75 0
71 75 79 0
71 75 -79 0
71 -75 79 0
-71 75 79 0
80 78 73 0
80 78 -73 0
80 -78 73 0
-80 78 73 0
78 79 80 0
78 79 -80 0
78 -79 80 0
-78 79 80 0
76 80 77 0
76 80 -77 0
76 -80 77 0
-76 80 77 0
78 76 74 0
78 76 -74 0
78 -76 74 0
-78 76 74 0
74 77 80 0
74 77 -80 0
74 -77 80 0
-74 77 80 0
77 71 76 0
77 71 -76 0
77 -71 76 0
-77 71 76 0
78 77 79 0
78 77 -79 0
78 -77 79 0
-78 77 79 0
73 78 71 0
73 78 -71 0
73 -78 71 0
-73 78 71 0
73 79 76 0
73 79 -76 0
73 -79 76 0
-73 79 76 0
72 78 80 0
72 78 -80 0
72 -78 80 0
-72 78 80 0
79 78 71 0
79 78 -71 0
79 -78 71 0
-79 78 71 0
73 77 80 0
73 77 -80 0
73 -77 80 0
-73 77 80 0
72 78 75 0
72 78 -75 0
72 -78 75 0
-72 78 75 0
76 77 72 0
76 77 -72 0
76 -77 72 0
-76 77 72 0
76 79 77 0
76 79 -77 0
76 -79 77 0
-76 79 77 0
76 78 71 0
76 78 -71 0
76 -78 71 0
-76 78 71 0
80 72 74 0
80 72 -74 0
80 -72 74 0
-80 72 74 0
75 74 72 0
75 74 -72 0
75 -74 72 0
-75 74 72 0
77 72 79 0
77 72 -79 0
77 -72 79 0
-77 72 79 0
78 73 75 0
78 73 -75 0
78 -73 75 0
-78 73 75 0
71 80 76 0
71 80 -76 0
71 -80 76 0
-71 80 76 0
